25
3 0 20 0
3 0 1 0
3 0 3 0
3 0 17 0
3 0 16 0
3 0 15 0
3 0 14 0
3 0 5 0
3 0 19 0
3 0 10 0
3 0 6 0
3 0 9 0
3 0 13 0
3 0 7 0
3 0 8 0
3 0 23 0
3 0 24 0
3 0 33 0
4 0 2 12 0
5 0 26 18 22 0
3 0 11 0
6 0 27 29 28 31 0
5 0 25 35 30 0
5 0 32 34 36 0
4 0 4 21 0
